c A SAT instance generated from a 3-CNF formula that had 30 clauses and 10 variables
p cnf 10 30
6 -7 -10 0
1 -8 -10 0
4 -8 7 0
-8 -2 -6 0
-10 -8 1 0
-4 -2 7 0
-3 -5 -7 0
-4 -7 3 0
-10 -8 -9 0
1 -10 -9 0
-1 9 8 0
7 -4 -2 0
-3 5 1 0
-4 10 2 0
9 8 -3 0
10 6 9 0
7 -2 -6 0
-5 8 -3 0
5 4 9 0
10 1 7 0
2 6 7 0
-8 -9 6 0
-1 -9 10 0
10 1 7 0
7 -6 -8 0
6 -10 8 0
9 -7 -8 0
9 4 -3 0
5 10 9 0
3 -9 1 0
